presolving:
(round 1, fast)       19630 del vars, 604 del conss, 0 add conss, 19026 chg bounds, 276 chg sides, 0 chg coeffs, 0 upgd conss, 0 impls, 0 clqs
(round 2, fast)       19630 del vars, 604 del conss, 0 add conss, 33466 chg bounds, 276 chg sides, 0 chg coeffs, 0 upgd conss, 0 impls, 0 clqs
   (0.3s) running MILP presolver
   (0.3s) MILP presolver (2 rounds): 0 aggregations, 0 fixings, 444 bound changes
(round 3, medium)     19630 del vars, 604 del conss, 0 add conss, 33910 chg bounds, 276 chg sides, 0 chg coeffs, 0 upgd conss, 0 impls, 0 clqs
   (0.4s) probing: 51/302 (16.9%) - 0 fixings, 0 aggregations, 0 implications, 0 bound changes
   (0.4s) probing aborted: 50/50 successive totally useless probings
   (0.4s) symmetry computation started: requiring (bin +, int -, cont +), (fixed: bin -, int +, cont -)
   (0.4s) symmetry computation finished: 3 generators found (max: 1500, log10 of symmetry group size: 0.9)
   (0.4s) no symmetry on binary variables present.
(round 4, exhaustive) 19630 del vars, 604 del conss, 3 add conss, 33910 chg bounds, 276 chg sides, 0 chg coeffs, 0 upgd conss, 0 impls, 0 clqs
presolving (5 rounds: 5 fast, 3 medium, 2 exhaustive):
 19630 deleted vars, 604 deleted constraints, 3 added constraints, 33910 tightened bounds, 0 added holes, 276 changed sides, 0 changed coefficients
 0 implications, 0 cliques
presolved problem has 19328 variables (302 bin, 0 int, 0 impl, 19026 cont) and 368 constraints
    368 constraints of type <linear>
Presolving Time: 0.50

 time | node  | left  |LP iter|LP it/n|mem/heur|mdpt |vars |cons |rows |cuts |sepa|confs|strbr|  dualbound   | primalbound  |  gap   | compl. 
p 0.7s|     1 |     0 |   475 |     - |   locks|   0 |  19k| 368 | 365 |   0 |  0 |   0 |   0 | 0.000000e+00 | 3.965156e+07 |    Inf | unknown
i 0.7s|     1 |     0 |   475 |     - |  oneopt|   0 |  19k| 368 | 365 |   0 |  0 |   0 |   0 | 0.000000e+00 | 7.555862e+06 |    Inf | unknown
  2.6s|     1 |     0 |  8125 |     - |   271M |   0 |  19k| 368 | 365 |   0 |  0 |   0 |   0 | 2.816217e+06 | 7.555862e+06 | 168.30%| unknown
r 2.6s|     1 |     0 |  8125 |     - |simplero|   0 |  19k| 368 | 365 |   0 |  0 |   0 |   0 | 2.816217e+06 | 2.878846e+06 |   2.22%| unknown
  2.6s|     1 |     0 |  8139 |     - |   275M |   0 |  19k| 368 | 366 |   1 |  1 |   0 |   0 | 2.816217e+06 | 2.878846e+06 |   2.22%| unknown
  2.7s|     1 |     0 |  8139 |     - |   279M |   0 |  19k| 368 | 366 |   1 |  1 |   0 |   0 | 2.816217e+06 | 2.878846e+06 |   2.22%| unknown
  2.7s|     1 |     0 |  8139 |     - |   279M |   0 |  19k| 235 | 366 |   1 |  3 |   0 |   0 | 2.816217e+06 | 2.878846e+06 |   2.22%| unknown
d 2.8s|     1 |     0 |  8188 |     - |farkasdi|   0 |  19k| 235 | 366 |   0 |  5 |   0 |   0 | 2.816217e+06 | 2.877336e+06 |   2.17%| unknown
d 2.8s|     1 |     0 |  8218 |     - |farkasdi|   0 |  19k| 235 | 366 |   0 |  5 |   0 |   0 | 2.816217e+06 | 2.866339e+06 |   1.78%| unknown
(run 1, node 1) restarting after 131 global fixings of integer variables

(restart) converted 1 cuts from the global cut pool into linear constraints

presolving:
(round 1, fast)       8407 del vars, 1 del conss, 0 add conss, 86 chg bounds, 0 chg sides, 0 chg coeffs, 0 upgd conss, 0 impls, 68 clqs
(round 2, fast)       9856 del vars, 24 del conss, 0 add conss, 1535 chg bounds, 0 chg sides, 0 chg coeffs, 0 upgd conss, 0 impls, 68 clqs
   (8.4s) running MILP presolver
   (8.5s) MILP presolver found nothing
presolving (3 rounds: 3 fast, 1 medium, 1 exhaustive):
 9856 deleted vars, 24 deleted constraints, 0 added constraints, 1535 tightened bounds, 0 added holes, 0 changed sides, 0 changed coefficients
 0 implications, 68 cliques
presolved problem has 9472 variables (148 bin, 0 int, 0 impl, 9324 cont) and 215 constraints
    215 constraints of type <linear>
Presolving Time: 1.79
transformed 97/100 original solutions to the transformed problem space

 time | node  | left  |LP iter|LP it/n|mem/heur|mdpt |vars |cons |rows |cuts |sepa|confs|strbr|  dualbound   | primalbound  |  gap   | compl. 
 10.1s|     1 |     0 | 12006 |     - |   439M |   0 |9472 | 215 | 212 |   0 |  0 |   5 |   0 | 2.816217e+06 | 2.866339e+06 |   1.78%| unknown
 10.1s|     1 |     0 | 12014 |     - |   440M |   0 |9472 | 215 | 213 |   1 |  2 |   5 |   0 | 2.816492e+06 | 2.866339e+06 |   1.77%| unknown
 10.1s|     1 |     0 | 12015 |     - |   440M |   0 |9472 | 215 | 214 |   2 |  3 |   5 |   0 | 2.816492e+06 | 2.866339e+06 |   1.77%| unknown
 11.9s|     1 |     2 | 13496 |     - |   441M |   0 |9472 | 215 | 214 |   2 |  5 |   5 |   0 | 2.816492e+06 | 2.866339e+06 |   1.77%| unknown
 17.2s|   100 |   101 | 21617 | 128.0 |   443M |  21 |9472 | 230 | 215 |   9 |  2 |  27 |   0 | 2.817023e+06 | 2.866339e+06 |   1.75%| unknown
r17.9s|   113 |   112 | 22304 | 119.3 |simplero|  21 |9472 | 231 | 214 |  10 |  0 |  28 |   0 | 2.817070e+06 | 2.864792e+06 |   1.69%| unknown
r17.9s|   114 |   113 | 22327 | 118.5 |simplero|  21 |9472 | 231 | 214 |  10 |  0 |  28 |   0 | 2.817070e+06 | 2.864792e+06 |   1.69%| unknown
 21.1s|   200 |   201 | 28093 |  96.4 |   445M |  21 |9472 | 233 | 213 |  20 |  2 |  33 |   0 | 2.817204e+06 | 2.864792e+06 |   1.69%| unknown
r23.2s|   277 |   276 | 32320 |  84.8 |simplero|  25 |9472 | 233 | 213 |  21 |  0 |  37 |   0 | 2.817434e+06 | 2.863751e+06 |   1.64%| unknown
 23.8s|   300 |   301 | 33405 |  82.0 |   446M |  27 |9472 | 233 | 213 |  21 |  2 |  38 |   0 | 2.817434e+06 | 2.863751e+06 |   1.64%| unknown
 26.5s|   400 |   401 | 38635 |  74.5 |   449M |  29 |9472 | 233 | 215 |  37 |  2 |  43 |   0 | 2.817434e+06 | 2.863751e+06 |   1.64%| unknown
L28.0s|   477 |   478 | 40852 |  67.2 |    rins|  31 |9472 | 236 | 214 |  40 |  1 |  50 |   0 | 2.817434e+06 | 2.859645e+06 |   1.50%| unknown
 29.3s|   500 |   501 | 43739 |  69.8 |   450M |  32 |9472 | 236 | 214 |  42 |  1 |  51 |   0 | 2.817434e+06 | 2.859645e+06 |   1.50%| unknown
 31.5s|   600 |   601 | 47520 |  64.5 |   452M |  39 |9472 | 239 | 213 |  46 |  2 |  58 |   0 | 2.817540e+06 | 2.859645e+06 |   1.49%| unknown
L33.2s|   681 |   682 | 50728 |  61.5 |crossove|  39 |9472 | 240 | 213 |  47 |  1 |  59 |   0 | 2.817542e+06 | 2.853586e+06 |   1.28%| unknown
 time | node  | left  |LP iter|LP it/n|mem/heur|mdpt |vars |cons |rows |cuts |sepa|confs|strbr|  dualbound   | primalbound  |  gap   | compl. 
 34.1s|   700 |   701 | 52189 |  62.0 |   453M |  39 |9472 | 240 | 213 |  47 |  1 |  61 |   0 | 2.817542e+06 | 2.853586e+06 |   1.28%| unknown
 36.1s|   800 |   801 | 56243 |  59.3 |   454M |  39 |9472 | 240 | 214 |  54 |  1 |  62 |   0 | 2.817787e+06 | 2.853586e+06 |   1.27%| unknown
L39.0s|   881 |   882 | 61320 |  59.6 |crossove|  39 |9472 | 240 | 214 |  58 |  1 |  68 |   0 | 2.817941e+06 | 2.847715e+06 |   1.06%| unknown
 39.5s|   900 |   901 | 62173 |  59.3 |   456M |  39 |9472 | 239 | 214 |  59 |  1 |  71 |   0 | 2.817941e+06 | 2.847715e+06 |   1.06%| unknown
d40.4s|   930 |   931 | 64302 |  59.7 |guideddi|  39 |9472 | 242 | 214 |   0 |  2 |  79 |   0 | 2.818111e+06 | 2.839619e+06 |   0.76%| unknown
d40.5s|   930 |   931 | 64304 |  59.7 |guideddi|  39 |9472 | 242 | 214 |   0 |  2 |  79 |   0 | 2.818111e+06 | 2.839619e+06 |   0.76%| unknown
 41.8s|  1000 |   995 | 66799 |  58.0 |   459M |  39 |9472 | 243 | 214 |  64 |  2 |  99 |   0 | 2.818126e+06 | 2.839619e+06 |   0.76%| unknown
*42.2s|  1038 |  1023 | 67759 |  56.8 |    LP  |  39 |9472 | 244 | 213 |  66 |  1 | 104 |   0 | 2.818126e+06 | 2.836099e+06 |   0.64%| unknown
L43.2s|  1081 |  1052 | 69723 |  56.3 |    alns|  39 |9472 | 244 | 214 |  69 |  1 | 120 |   0 | 2.818197e+06 | 2.832342e+06 |   0.50%| unknown
L43.3s|  1081 |  1052 | 69723 |  56.3 |    alns|  39 |9472 | 244 | 214 |  69 |  1 | 120 |   0 | 2.818197e+06 | 2.832136e+06 |   0.49%| unknown
L43.4s|  1081 |   182 | 69723 |  56.3 |    alns|  39 |9472 | 244 | 214 |  69 |  1 | 120 |   0 | 2.818197e+06 | 2.822199e+06 |   0.14%|   7.14%
 43.5s|  1100 |   177 | 70045 |  55.7 |   461M |  39 |9472 | 232 |   0 |  70 |  0 | 123 |   0 | 2.818197e+06 | 2.822199e+06 |   0.14%|  12.70%
 44.0s|  1200 |    93 | 71692 |  52.4 |   461M |  40 |9472 | 238 | 213 |  72 |  1 | 131 |   0 | 2.819358e+06 | 2.822199e+06 |   0.10%|  74.21%

SCIP Status        : problem is solved [optimal solution found]
Solving Time (sec) : 44.74
Solving Nodes      : 1287 (total of 1288 nodes in 2 runs)
Primal Bound       : +2.82219884698207e+06 (509 solutions)
Dual Bound         : +2.82219884698207e+06
Gap                : 0.00 %
Solve Status: optimal
Solve Time: 44.74 seconds
